EMPLOYEE = 1..5;
JOB = 1..9;
expected_benefit =
    [|12, 8, 5, 8, 9, 5, 4, 6, 11
     |11, 7, 3, 10, 6, 4, 7, 3, 9
     |7, 4, 2, 7, 8, 7, 6, 2, 4
     |9, 10, 6, 6, 6, 4, 4, 1, 7
     |3, 10, 1, 3, 9, 6, 5, 5, 2
     |];
number_of_required_people =
    [2, 2, 1, 1, 1, 1, 1, 1, 2];
